c Counting Principle: 20 divided in parts of size 2.
c Generated with `cnfgen`
c (C) 2012-2019 Massimo Lauria <massimo.lauria@uniroma1.it>
c https://massimolauria.net/cnfgen
c
c COMMAND LINE: cnfgen -o ./parity/parity20.cnf parity 20
c
p cnf 190 3440
-1 -2 0
-1 -3 0
-1 -4 0
-1 -5 0
-1 -6 0
-1 -7 0
-1 -8 0
-1 -9 0
-1 -10 0
-1 -11 0
-1 -12 0
-1 -13 0
-1 -14 0
-1 -15 0
-1 -16 0
-1 -17 0
-1 -18 0
-1 -19 0
-2 -3 0
-2 -4 0
-2 -5 0
-2 -6 0
-2 -7 0
-2 -8 0
-2 -9 0
-2 -10 0
-2 -11 0
-2 -12 0
-2 -13 0
-2 -14 0
-2 -15 0
-2 -16 0
-2 -17 0
-2 -18 0
-2 -19 0
-3 -4 0
-3 -5 0
-3 -6 0
-3 -7 0
-3 -8 0
-3 -9 0
-3 -10 0
-3 -11 0
-3 -12 0
-3 -13 0
-3 -14 0
-3 -15 0
-3 -16 0
-3 -17 0
-3 -18 0
-3 -19 0
-4 -5 0
-4 -6 0
-4 -7 0
-4 -8 0
-4 -9 0
-4 -10 0
-4 -11 0
-4 -12 0
-4 -13 0
-4 -14 0
-4 -15 0
-4 -16 0
-4 -17 0
-4 -18 0
-4 -19 0
-5 -6 0
-5 -7 0
-5 -8 0
-5 -9 0
-5 -10 0
-5 -11 0
-5 -12 0
-5 -13 0
-5 -14 0
-5 -15 0
-5 -16 0
-5 -17 0
-5 -18 0
-5 -19 0
-6 -7 0
-6 -8 0
-6 -9 0
-6 -10 0
-6 -11 0
-6 -12 0
-6 -13 0
-6 -14 0
-6 -15 0
-6 -16 0
-6 -17 0
-6 -18 0
-6 -19 0
-7 -8 0
-7 -9 0
-7 -10 0
-7 -11 0
-7 -12 0
-7 -13 0
-7 -14 0
-7 -15 0
-7 -16 0
-7 -17 0
-7 -18 0
-7 -19 0
-8 -9 0
-8 -10 0
-8 -11 0
-8 -12 0
-8 -13 0
-8 -14 0
-8 -15 0
-8 -16 0
-8 -17 0
-8 -18 0
-8 -19 0
-9 -10 0
-9 -11 0
-9 -12 0
-9 -13 0
-9 -14 0
-9 -15 0
-9 -16 0
-9 -17 0
-9 -18 0
-9 -19 0
-10 -11 0
-10 -12 0
-10 -13 0
-10 -14 0
-10 -15 0
-10 -16 0
-10 -17 0
-10 -18 0
-10 -19 0
-11 -12 0
-11 -13 0
-11 -14 0
-11 -15 0
-11 -16 0
-11 -17 0
-11 -18 0
-11 -19 0
-12 -13 0
-12 -14 0
-12 -15 0
-12 -16 0
-12 -17 0
-12 -18 0
-12 -19 0
-13 -14 0
-13 -15 0
-13 -16 0
-13 -17 0
-13 -18 0
-13 -19 0
-14 -15 0
-14 -16 0
-14 -17 0
-14 -18 0
-14 -19 0
-15 -16 0
-15 -17 0
-15 -18 0
-15 -19 0
-16 -17 0
-16 -18 0
-16 -19 0
-17 -18 0
-17 -19 0
-18 -19 0
1 2 3 4 5 6 7 8 9 10 11 12 13 14 15 16 17 18 19 0
-1 -20 0
-1 -21 0
-1 -22 0
-1 -23 0
-1 -24 0
-1 -25 0
-1 -26 0
-1 -27 0
-1 -28 0
-1 -29 0
-1 -30 0
-1 -31 0
-1 -32 0
-1 -33 0
-1 -34 0
-1 -35 0
-1 -36 0
-1 -37 0
-20 -21 0
-20 -22 0
-20 -23 0
-20 -24 0
-20 -25 0
-20 -26 0
-20 -27 0
-20 -28 0
-20 -29 0
-20 -30 0
-20 -31 0
-20 -32 0
-20 -33 0
-20 -34 0
-20 -35 0
-20 -36 0
-20 -37 0
-21 -22 0
-21 -23 0
-21 -24 0
-21 -25 0
-21 -26 0
-21 -27 0
-21 -28 0
-21 -29 0
-21 -30 0
-21 -31 0
-21 -32 0
-21 -33 0
-21 -34 0
-21 -35 0
-21 -36 0
-21 -37 0
-22 -23 0
-22 -24 0
-22 -25 0
-22 -26 0
-22 -27 0
-22 -28 0
-22 -29 0
-22 -30 0
-22 -31 0
-22 -32 0
-22 -33 0
-22 -34 0
-22 -35 0
-22 -36 0
-22 -37 0
-23 -24 0
-23 -25 0
-23 -26 0
-23 -27 0
-23 -28 0
-23 -29 0
-23 -30 0
-23 -31 0
-23 -32 0
-23 -33 0
-23 -34 0
-23 -35 0
-23 -36 0
-23 -37 0
-24 -25 0
-24 -26 0
-24 -27 0
-24 -28 0
-24 -29 0
-24 -30 0
-24 -31 0
-24 -32 0
-24 -33 0
-24 -34 0
-24 -35 0
-24 -36 0
-24 -37 0
-25 -26 0
-25 -27 0
-25 -28 0
-25 -29 0
-25 -30 0
-25 -31 0
-25 -32 0
-25 -33 0
-25 -34 0
-25 -35 0
-25 -36 0
-25 -37 0
-26 -27 0
-26 -28 0
-26 -29 0
-26 -30 0
-26 -31 0
-26 -32 0
-26 -33 0
-26 -34 0
-26 -35 0
-26 -36 0
-26 -37 0
-27 -28 0
-27 -29 0
-27 -30 0
-27 -31 0
-27 -32 0
-27 -33 0
-27 -34 0
-27 -35 0
-27 -36 0
-27 -37 0
-28 -29 0
-28 -30 0
-28 -31 0
-28 -32 0
-28 -33 0
-28 -34 0
-28 -35 0
-28 -36 0
-28 -37 0
-29 -30 0
-29 -31 0
-29 -32 0
-29 -33 0
-29 -34 0
-29 -35 0
-29 -36 0
-29 -37 0
-30 -31 0
-30 -32 0
-30 -33 0
-30 -34 0
-30 -35 0
-30 -36 0
-30 -37 0
-31 -32 0
-31 -33 0
-31 -34 0
-31 -35 0
-31 -36 0
-31 -37 0
-32 -33 0
-32 -34 0
-32 -35 0
-32 -36 0
-32 -37 0
-33 -34 0
-33 -35 0
-33 -36 0
-33 -37 0
-34 -35 0
-34 -36 0
-34 -37 0
-35 -36 0
-35 -37 0
-36 -37 0
1 20 21 22 23 24 25 26 27 28 29 30 31 32 33 34 35 36 37 0
-2 -20 0
-2 -38 0
-2 -39 0
-2 -40 0
-2 -41 0
-2 -42 0
-2 -43 0
-2 -44 0
-2 -45 0
-2 -46 0
-2 -47 0
-2 -48 0
-2 -49 0
-2 -50 0
-2 -51 0
-2 -52 0
-2 -53 0
-2 -54 0
-20 -38 0
-20 -39 0
-20 -40 0
-20 -41 0
-20 -42 0
-20 -43 0
-20 -44 0
-20 -45 0
-20 -46 0
-20 -47 0
-20 -48 0
-20 -49 0
-20 -50 0
-20 -51 0
-20 -52 0
-20 -53 0
-20 -54 0
-38 -39 0
-38 -40 0
-38 -41 0
-38 -42 0
-38 -43 0
-38 -44 0
-38 -45 0
-38 -46 0
-38 -47 0
-38 -48 0
-38 -49 0
-38 -50 0
-38 -51 0
-38 -52 0
-38 -53 0
-38 -54 0
-39 -40 0
-39 -41 0
-39 -42 0
-39 -43 0
-39 -44 0
-39 -45 0
-39 -46 0
-39 -47 0
-39 -48 0
-39 -49 0
-39 -50 0
-39 -51 0
-39 -52 0
-39 -53 0
-39 -54 0
-40 -41 0
-40 -42 0
-40 -43 0
-40 -44 0
-40 -45 0
-40 -46 0
-40 -47 0
-40 -48 0
-40 -49 0
-40 -50 0
-40 -51 0
-40 -52 0
-40 -53 0
-40 -54 0
-41 -42 0
-41 -43 0
-41 -44 0
-41 -45 0
-41 -46 0
-41 -47 0
-41 -48 0
-41 -49 0
-41 -50 0
-41 -51 0
-41 -52 0
-41 -53 0
-41 -54 0
-42 -43 0
-42 -44 0
-42 -45 0
-42 -46 0
-42 -47 0
-42 -48 0
-42 -49 0
-42 -50 0
-42 -51 0
-42 -52 0
-42 -53 0
-42 -54 0
-43 -44 0
-43 -45 0
-43 -46 0
-43 -47 0
-43 -48 0
-43 -49 0
-43 -50 0
-43 -51 0
-43 -52 0
-43 -53 0
-43 -54 0
-44 -45 0
-44 -46 0
-44 -47 0
-44 -48 0
-44 -49 0
-44 -50 0
-44 -51 0
-44 -52 0
-44 -53 0
-44 -54 0
-45 -46 0
-45 -47 0
-45 -48 0
-45 -49 0
-45 -50 0
-45 -51 0
-45 -52 0
-45 -53 0
-45 -54 0
-46 -47 0
-46 -48 0
-46 -49 0
-46 -50 0
-46 -51 0
-46 -52 0
-46 -53 0
-46 -54 0
-47 -48 0
-47 -49 0
-47 -50 0
-47 -51 0
-47 -52 0
-47 -53 0
-47 -54 0
-48 -49 0
-48 -50 0
-48 -51 0
-48 -52 0
-48 -53 0
-48 -54 0
-49 -50 0
-49 -51 0
-49 -52 0
-49 -53 0
-49 -54 0
-50 -51 0
-50 -52 0
-50 -53 0
-50 -54 0
-51 -52 0
-51 -53 0
-51 -54 0
-52 -53 0
-52 -54 0
-53 -54 0
2 20 38 39 40 41 42 43 44 45 46 47 48 49 50 51 52 53 54 0
-3 -21 0
-3 -38 0
-3 -55 0
-3 -56 0
-3 -57 0
-3 -58 0
-3 -59 0
-3 -60 0
-3 -61 0
-3 -62 0
-3 -63 0
-3 -64 0
-3 -65 0
-3 -66 0
-3 -67 0
-3 -68 0
-3 -69 0
-3 -70 0
-21 -38 0
-21 -55 0
-21 -56 0
-21 -57 0
-21 -58 0
-21 -59 0
-21 -60 0
-21 -61 0
-21 -62 0
-21 -63 0
-21 -64 0
-21 -65 0
-21 -66 0
-21 -67 0
-21 -68 0
-21 -69 0
-21 -70 0
-38 -55 0
-38 -56 0
-38 -57 0
-38 -58 0
-38 -59 0
-38 -60 0
-38 -61 0
-38 -62 0
-38 -63 0
-38 -64 0
-38 -65 0
-38 -66 0
-38 -67 0
-38 -68 0
-38 -69 0
-38 -70 0
-55 -56 0
-55 -57 0
-55 -58 0
-55 -59 0
-55 -60 0
-55 -61 0
-55 -62 0
-55 -63 0
-55 -64 0
-55 -65 0
-55 -66 0
-55 -67 0
-55 -68 0
-55 -69 0
-55 -70 0
-56 -57 0
-56 -58 0
-56 -59 0
-56 -60 0
-56 -61 0
-56 -62 0
-56 -63 0
-56 -64 0
-56 -65 0
-56 -66 0
-56 -67 0
-56 -68 0
-56 -69 0
-56 -70 0
-57 -58 0
-57 -59 0
-57 -60 0
-57 -61 0
-57 -62 0
-57 -63 0
-57 -64 0
-57 -65 0
-57 -66 0
-57 -67 0
-57 -68 0
-57 -69 0
-57 -70 0
-58 -59 0
-58 -60 0
-58 -61 0
-58 -62 0
-58 -63 0
-58 -64 0
-58 -65 0
-58 -66 0
-58 -67 0
-58 -68 0
-58 -69 0
-58 -70 0
-59 -60 0
-59 -61 0
-59 -62 0
-59 -63 0
-59 -64 0
-59 -65 0
-59 -66 0
-59 -67 0
-59 -68 0
-59 -69 0
-59 -70 0
-60 -61 0
-60 -62 0
-60 -63 0
-60 -64 0
-60 -65 0
-60 -66 0
-60 -67 0
-60 -68 0
-60 -69 0
-60 -70 0
-61 -62 0
-61 -63 0
-61 -64 0
-61 -65 0
-61 -66 0
-61 -67 0
-61 -68 0
-61 -69 0
-61 -70 0
-62 -63 0
-62 -64 0
-62 -65 0
-62 -66 0
-62 -67 0
-62 -68 0
-62 -69 0
-62 -70 0
-63 -64 0
-63 -65 0
-63 -66 0
-63 -67 0
-63 -68 0
-63 -69 0
-63 -70 0
-64 -65 0
-64 -66 0
-64 -67 0
-64 -68 0
-64 -69 0
-64 -70 0
-65 -66 0
-65 -67 0
-65 -68 0
-65 -69 0
-65 -70 0
-66 -67 0
-66 -68 0
-66 -69 0
-66 -70 0
-67 -68 0
-67 -69 0
-67 -70 0
-68 -69 0
-68 -70 0
-69 -70 0
3 21 38 55 56 57 58 59 60 61 62 63 64 65 66 67 68 69 70 0
-4 -22 0
-4 -39 0
-4 -55 0
-4 -71 0
-4 -72 0
-4 -73 0
-4 -74 0
-4 -75 0
-4 -76 0
-4 -77 0
-4 -78 0
-4 -79 0
-4 -80 0
-4 -81 0
-4 -82 0
-4 -83 0
-4 -84 0
-4 -85 0
-22 -39 0
-22 -55 0
-22 -71 0
-22 -72 0
-22 -73 0
-22 -74 0
-22 -75 0
-22 -76 0
-22 -77 0
-22 -78 0
-22 -79 0
-22 -80 0
-22 -81 0
-22 -82 0
-22 -83 0
-22 -84 0
-22 -85 0
-39 -55 0
-39 -71 0
-39 -72 0
-39 -73 0
-39 -74 0
-39 -75 0
-39 -76 0
-39 -77 0
-39 -78 0
-39 -79 0
-39 -80 0
-39 -81 0
-39 -82 0
-39 -83 0
-39 -84 0
-39 -85 0
-55 -71 0
-55 -72 0
-55 -73 0
-55 -74 0
-55 -75 0
-55 -76 0
-55 -77 0
-55 -78 0
-55 -79 0
-55 -80 0
-55 -81 0
-55 -82 0
-55 -83 0
-55 -84 0
-55 -85 0
-71 -72 0
-71 -73 0
-71 -74 0
-71 -75 0
-71 -76 0
-71 -77 0
-71 -78 0
-71 -79 0
-71 -80 0
-71 -81 0
-71 -82 0
-71 -83 0
-71 -84 0
-71 -85 0
-72 -73 0
-72 -74 0
-72 -75 0
-72 -76 0
-72 -77 0
-72 -78 0
-72 -79 0
-72 -80 0
-72 -81 0
-72 -82 0
-72 -83 0
-72 -84 0
-72 -85 0
-73 -74 0
-73 -75 0
-73 -76 0
-73 -77 0
-73 -78 0
-73 -79 0
-73 -80 0
-73 -81 0
-73 -82 0
-73 -83 0
-73 -84 0
-73 -85 0
-74 -75 0
-74 -76 0
-74 -77 0
-74 -78 0
-74 -79 0
-74 -80 0
-74 -81 0
-74 -82 0
-74 -83 0
-74 -84 0
-74 -85 0
-75 -76 0
-75 -77 0
-75 -78 0
-75 -79 0
-75 -80 0
-75 -81 0
-75 -82 0
-75 -83 0
-75 -84 0
-75 -85 0
-76 -77 0
-76 -78 0
-76 -79 0
-76 -80 0
-76 -81 0
-76 -82 0
-76 -83 0
-76 -84 0
-76 -85 0
-77 -78 0
-77 -79 0
-77 -80 0
-77 -81 0
-77 -82 0
-77 -83 0
-77 -84 0
-77 -85 0
-78 -79 0
-78 -80 0
-78 -81 0
-78 -82 0
-78 -83 0
-78 -84 0
-78 -85 0
-79 -80 0
-79 -81 0
-79 -82 0
-79 -83 0
-79 -84 0
-79 -85 0
-80 -81 0
-80 -82 0
-80 -83 0
-80 -84 0
-80 -85 0
-81 -82 0
-81 -83 0
-81 -84 0
-81 -85 0
-82 -83 0
-82 -84 0
-82 -85 0
-83 -84 0
-83 -85 0
-84 -85 0
4 22 39 55 71 72 73 74 75 76 77 78 79 80 81 82 83 84 85 0
-5 -23 0
-5 -40 0
-5 -56 0
-5 -71 0
-5 -86 0
-5 -87 0
-5 -88 0
-5 -89 0
-5 -90 0
-5 -91 0
-5 -92 0
-5 -93 0
-5 -94 0
-5 -95 0
-5 -96 0
-5 -97 0
-5 -98 0
-5 -99 0
-23 -40 0
-23 -56 0
-23 -71 0
-23 -86 0
-23 -87 0
-23 -88 0
-23 -89 0
-23 -90 0
-23 -91 0
-23 -92 0
-23 -93 0
-23 -94 0
-23 -95 0
-23 -96 0
-23 -97 0
-23 -98 0
-23 -99 0
-40 -56 0
-40 -71 0
-40 -86 0
-40 -87 0
-40 -88 0
-40 -89 0
-40 -90 0
-40 -91 0
-40 -92 0
-40 -93 0
-40 -94 0
-40 -95 0
-40 -96 0
-40 -97 0
-40 -98 0
-40 -99 0
-56 -71 0
-56 -86 0
-56 -87 0
-56 -88 0
-56 -89 0
-56 -90 0
-56 -91 0
-56 -92 0
-56 -93 0
-56 -94 0
-56 -95 0
-56 -96 0
-56 -97 0
-56 -98 0
-56 -99 0
-71 -86 0
-71 -87 0
-71 -88 0
-71 -89 0
-71 -90 0
-71 -91 0
-71 -92 0
-71 -93 0
-71 -94 0
-71 -95 0
-71 -96 0
-71 -97 0
-71 -98 0
-71 -99 0
-86 -87 0
-86 -88 0
-86 -89 0
-86 -90 0
-86 -91 0
-86 -92 0
-86 -93 0
-86 -94 0
-86 -95 0
-86 -96 0
-86 -97 0
-86 -98 0
-86 -99 0
-87 -88 0
-87 -89 0
-87 -90 0
-87 -91 0
-87 -92 0
-87 -93 0
-87 -94 0
-87 -95 0
-87 -96 0
-87 -97 0
-87 -98 0
-87 -99 0
-88 -89 0
-88 -90 0
-88 -91 0
-88 -92 0
-88 -93 0
-88 -94 0
-88 -95 0
-88 -96 0
-88 -97 0
-88 -98 0
-88 -99 0
-89 -90 0
-89 -91 0
-89 -92 0
-89 -93 0
-89 -94 0
-89 -95 0
-89 -96 0
-89 -97 0
-89 -98 0
-89 -99 0
-90 -91 0
-90 -92 0
-90 -93 0
-90 -94 0
-90 -95 0
-90 -96 0
-90 -97 0
-90 -98 0
-90 -99 0
-91 -92 0
-91 -93 0
-91 -94 0
-91 -95 0
-91 -96 0
-91 -97 0
-91 -98 0
-91 -99 0
-92 -93 0
-92 -94 0
-92 -95 0
-92 -96 0
-92 -97 0
-92 -98 0
-92 -99 0
-93 -94 0
-93 -95 0
-93 -96 0
-93 -97 0
-93 -98 0
-93 -99 0
-94 -95 0
-94 -96 0
-94 -97 0
-94 -98 0
-94 -99 0
-95 -96 0
-95 -97 0
-95 -98 0
-95 -99 0
-96 -97 0
-96 -98 0
-96 -99 0
-97 -98 0
-97 -99 0
-98 -99 0
5 23 40 56 71 86 87 88 89 90 91 92 93 94 95 96 97 98 99 0
-6 -24 0
-6 -41 0
-6 -57 0
-6 -72 0
-6 -86 0
-6 -100 0
-6 -101 0
-6 -102 0
-6 -103 0
-6 -104 0
-6 -105 0
-6 -106 0
-6 -107 0
-6 -108 0
-6 -109 0
-6 -110 0
-6 -111 0
-6 -112 0
-24 -41 0
-24 -57 0
-24 -72 0
-24 -86 0
-24 -100 0
-24 -101 0
-24 -102 0
-24 -103 0
-24 -104 0
-24 -105 0
-24 -106 0
-24 -107 0
-24 -108 0
-24 -109 0
-24 -110 0
-24 -111 0
-24 -112 0
-41 -57 0
-41 -72 0
-41 -86 0
-41 -100 0
-41 -101 0
-41 -102 0
-41 -103 0
-41 -104 0
-41 -105 0
-41 -106 0
-41 -107 0
-41 -108 0
-41 -109 0
-41 -110 0
-41 -111 0
-41 -112 0
-57 -72 0
-57 -86 0
-57 -100 0
-57 -101 0
-57 -102 0
-57 -103 0
-57 -104 0
-57 -105 0
-57 -106 0
-57 -107 0
-57 -108 0
-57 -109 0
-57 -110 0
-57 -111 0
-57 -112 0
-72 -86 0
-72 -100 0
-72 -101 0
-72 -102 0
-72 -103 0
-72 -104 0
-72 -105 0
-72 -106 0
-72 -107 0
-72 -108 0
-72 -109 0
-72 -110 0
-72 -111 0
-72 -112 0
-86 -100 0
-86 -101 0
-86 -102 0
-86 -103 0
-86 -104 0
-86 -105 0
-86 -106 0
-86 -107 0
-86 -108 0
-86 -109 0
-86 -110 0
-86 -111 0
-86 -112 0
-100 -101 0
-100 -102 0
-100 -103 0
-100 -104 0
-100 -105 0
-100 -106 0
-100 -107 0
-100 -108 0
-100 -109 0
-100 -110 0
-100 -111 0
-100 -112 0
-101 -102 0
-101 -103 0
-101 -104 0
-101 -105 0
-101 -106 0
-101 -107 0
-101 -108 0
-101 -109 0
-101 -110 0
-101 -111 0
-101 -112 0
-102 -103 0
-102 -104 0
-102 -105 0
-102 -106 0
-102 -107 0
-102 -108 0
-102 -109 0
-102 -110 0
-102 -111 0
-102 -112 0
-103 -104 0
-103 -105 0
-103 -106 0
-103 -107 0
-103 -108 0
-103 -109 0
-103 -110 0
-103 -111 0
-103 -112 0
-104 -105 0
-104 -106 0
-104 -107 0
-104 -108 0
-104 -109 0
-104 -110 0
-104 -111 0
-104 -112 0
-105 -106 0
-105 -107 0
-105 -108 0
-105 -109 0
-105 -110 0
-105 -111 0
-105 -112 0
-106 -107 0
-106 -108 0
-106 -109 0
-106 -110 0
-106 -111 0
-106 -112 0
-107 -108 0
-107 -109 0
-107 -110 0
-107 -111 0
-107 -112 0
-108 -109 0
-108 -110 0
-108 -111 0
-108 -112 0
-109 -110 0
-109 -111 0
-109 -112 0
-110 -111 0
-110 -112 0
-111 -112 0
6 24 41 57 72 86 100 101 102 103 104 105 106 107 108 109 110 111 112 0
-7 -25 0
-7 -42 0
-7 -58 0
-7 -73 0
-7 -87 0
-7 -100 0
-7 -113 0
-7 -114 0
-7 -115 0
-7 -116 0
-7 -117 0
-7 -118 0
-7 -119 0
-7 -120 0
-7 -121 0
-7 -122 0
-7 -123 0
-7 -124 0
-25 -42 0
-25 -58 0
-25 -73 0
-25 -87 0
-25 -100 0
-25 -113 0
-25 -114 0
-25 -115 0
-25 -116 0
-25 -117 0
-25 -118 0
-25 -119 0
-25 -120 0
-25 -121 0
-25 -122 0
-25 -123 0
-25 -124 0
-42 -58 0
-42 -73 0
-42 -87 0
-42 -100 0
-42 -113 0
-42 -114 0
-42 -115 0
-42 -116 0
-42 -117 0
-42 -118 0
-42 -119 0
-42 -120 0
-42 -121 0
-42 -122 0
-42 -123 0
-42 -124 0
-58 -73 0
-58 -87 0
-58 -100 0
-58 -113 0
-58 -114 0
-58 -115 0
-58 -116 0
-58 -117 0
-58 -118 0
-58 -119 0
-58 -120 0
-58 -121 0
-58 -122 0
-58 -123 0
-58 -124 0
-73 -87 0
-73 -100 0
-73 -113 0
-73 -114 0
-73 -115 0
-73 -116 0
-73 -117 0
-73 -118 0
-73 -119 0
-73 -120 0
-73 -121 0
-73 -122 0
-73 -123 0
-73 -124 0
-87 -100 0
-87 -113 0
-87 -114 0
-87 -115 0
-87 -116 0
-87 -117 0
-87 -118 0
-87 -119 0
-87 -120 0
-87 -121 0
-87 -122 0
-87 -123 0
-87 -124 0
-100 -113 0
-100 -114 0
-100 -115 0
-100 -116 0
-100 -117 0
-100 -118 0
-100 -119 0
-100 -120 0
-100 -121 0
-100 -122 0
-100 -123 0
-100 -124 0
-113 -114 0
-113 -115 0
-113 -116 0
-113 -117 0
-113 -118 0
-113 -119 0
-113 -120 0
-113 -121 0
-113 -122 0
-113 -123 0
-113 -124 0
-114 -115 0
-114 -116 0
-114 -117 0
-114 -118 0
-114 -119 0
-114 -120 0
-114 -121 0
-114 -122 0
-114 -123 0
-114 -124 0
-115 -116 0
-115 -117 0
-115 -118 0
-115 -119 0
-115 -120 0
-115 -121 0
-115 -122 0
-115 -123 0
-115 -124 0
-116 -117 0
-116 -118 0
-116 -119 0
-116 -120 0
-116 -121 0
-116 -122 0
-116 -123 0
-116 -124 0
-117 -118 0
-117 -119 0
-117 -120 0
-117 -121 0
-117 -122 0
-117 -123 0
-117 -124 0
-118 -119 0
-118 -120 0
-118 -121 0
-118 -122 0
-118 -123 0
-118 -124 0
-119 -120 0
-119 -121 0
-119 -122 0
-119 -123 0
-119 -124 0
-120 -121 0
-120 -122 0
-120 -123 0
-120 -124 0
-121 -122 0
-121 -123 0
-121 -124 0
-122 -123 0
-122 -124 0
-123 -124 0
7 25 42 58 73 87 100 113 114 115 116 117 118 119 120 121 122 123 124 0
-8 -26 0
-8 -43 0
-8 -59 0
-8 -74 0
-8 -88 0
-8 -101 0
-8 -113 0
-8 -125 0
-8 -126 0
-8 -127 0
-8 -128 0
-8 -129 0
-8 -130 0
-8 -131 0
-8 -132 0
-8 -133 0
-8 -134 0
-8 -135 0
-26 -43 0
-26 -59 0
-26 -74 0
-26 -88 0
-26 -101 0
-26 -113 0
-26 -125 0
-26 -126 0
-26 -127 0
-26 -128 0
-26 -129 0
-26 -130 0
-26 -131 0
-26 -132 0
-26 -133 0
-26 -134 0
-26 -135 0
-43 -59 0
-43 -74 0
-43 -88 0
-43 -101 0
-43 -113 0
-43 -125 0
-43 -126 0
-43 -127 0
-43 -128 0
-43 -129 0
-43 -130 0
-43 -131 0
-43 -132 0
-43 -133 0
-43 -134 0
-43 -135 0
-59 -74 0
-59 -88 0
-59 -101 0
-59 -113 0
-59 -125 0
-59 -126 0
-59 -127 0
-59 -128 0
-59 -129 0
-59 -130 0
-59 -131 0
-59 -132 0
-59 -133 0
-59 -134 0
-59 -135 0
-74 -88 0
-74 -101 0
-74 -113 0
-74 -125 0
-74 -126 0
-74 -127 0
-74 -128 0
-74 -129 0
-74 -130 0
-74 -131 0
-74 -132 0
-74 -133 0
-74 -134 0
-74 -135 0
-88 -101 0
-88 -113 0
-88 -125 0
-88 -126 0
-88 -127 0
-88 -128 0
-88 -129 0
-88 -130 0
-88 -131 0
-88 -132 0
-88 -133 0
-88 -134 0
-88 -135 0
-101 -113 0
-101 -125 0
-101 -126 0
-101 -127 0
-101 -128 0
-101 -129 0
-101 -130 0
-101 -131 0
-101 -132 0
-101 -133 0
-101 -134 0
-101 -135 0
-113 -125 0
-113 -126 0
-113 -127 0
-113 -128 0
-113 -129 0
-113 -130 0
-113 -131 0
-113 -132 0
-113 -133 0
-113 -134 0
-113 -135 0
-125 -126 0
-125 -127 0
-125 -128 0
-125 -129 0
-125 -130 0
-125 -131 0
-125 -132 0
-125 -133 0
-125 -134 0
-125 -135 0
-126 -127 0
-126 -128 0
-126 -129 0
-126 -130 0
-126 -131 0
-126 -132 0
-126 -133 0
-126 -134 0
-126 -135 0
-127 -128 0
-127 -129 0
-127 -130 0
-127 -131 0
-127 -132 0
-127 -133 0
-127 -134 0
-127 -135 0
-128 -129 0
-128 -130 0
-128 -131 0
-128 -132 0
-128 -133 0
-128 -134 0
-128 -135 0
-129 -130 0
-129 -131 0
-129 -132 0
-129 -133 0
-129 -134 0
-129 -135 0
-130 -131 0
-130 -132 0
-130 -133 0
-130 -134 0
-130 -135 0
-131 -132 0
-131 -133 0
-131 -134 0
-131 -135 0
-132 -133 0
-132 -134 0
-132 -135 0
-133 -134 0
-133 -135 0
-134 -135 0
8 26 43 59 74 88 101 113 125 126 127 128 129 130 131 132 133 134 135 0
-9 -27 0
-9 -44 0
-9 -60 0
-9 -75 0
-9 -89 0
-9 -102 0
-9 -114 0
-9 -125 0
-9 -136 0
-9 -137 0
-9 -138 0
-9 -139 0
-9 -140 0
-9 -141 0
-9 -142 0
-9 -143 0
-9 -144 0
-9 -145 0
-27 -44 0
-27 -60 0
-27 -75 0
-27 -89 0
-27 -102 0
-27 -114 0
-27 -125 0
-27 -136 0
-27 -137 0
-27 -138 0
-27 -139 0
-27 -140 0
-27 -141 0
-27 -142 0
-27 -143 0
-27 -144 0
-27 -145 0
-44 -60 0
-44 -75 0
-44 -89 0
-44 -102 0
-44 -114 0
-44 -125 0
-44 -136 0
-44 -137 0
-44 -138 0
-44 -139 0
-44 -140 0
-44 -141 0
-44 -142 0
-44 -143 0
-44 -144 0
-44 -145 0
-60 -75 0
-60 -89 0
-60 -102 0
-60 -114 0
-60 -125 0
-60 -136 0
-60 -137 0
-60 -138 0
-60 -139 0
-60 -140 0
-60 -141 0
-60 -142 0
-60 -143 0
-60 -144 0
-60 -145 0
-75 -89 0
-75 -102 0
-75 -114 0
-75 -125 0
-75 -136 0
-75 -137 0
-75 -138 0
-75 -139 0
-75 -140 0
-75 -141 0
-75 -142 0
-75 -143 0
-75 -144 0
-75 -145 0
-89 -102 0
-89 -114 0
-89 -125 0
-89 -136 0
-89 -137 0
-89 -138 0
-89 -139 0
-89 -140 0
-89 -141 0
-89 -142 0
-89 -143 0
-89 -144 0
-89 -145 0
-102 -114 0
-102 -125 0
-102 -136 0
-102 -137 0
-102 -138 0
-102 -139 0
-102 -140 0
-102 -141 0
-102 -142 0
-102 -143 0
-102 -144 0
-102 -145 0
-114 -125 0
-114 -136 0
-114 -137 0
-114 -138 0
-114 -139 0
-114 -140 0
-114 -141 0
-114 -142 0
-114 -143 0
-114 -144 0
-114 -145 0
-125 -136 0
-125 -137 0
-125 -138 0
-125 -139 0
-125 -140 0
-125 -141 0
-125 -142 0
-125 -143 0
-125 -144 0
-125 -145 0
-136 -137 0
-136 -138 0
-136 -139 0
-136 -140 0
-136 -141 0
-136 -142 0
-136 -143 0
-136 -144 0
-136 -145 0
-137 -138 0
-137 -139 0
-137 -140 0
-137 -141 0
-137 -142 0
-137 -143 0
-137 -144 0
-137 -145 0
-138 -139 0
-138 -140 0
-138 -141 0
-138 -142 0
-138 -143 0
-138 -144 0
-138 -145 0
-139 -140 0
-139 -141 0
-139 -142 0
-139 -143 0
-139 -144 0
-139 -145 0
-140 -141 0
-140 -142 0
-140 -143 0
-140 -144 0
-140 -145 0
-141 -142 0
-141 -143 0
-141 -144 0
-141 -145 0
-142 -143 0
-142 -144 0
-142 -145 0
-143 -144 0
-143 -145 0
-144 -145 0
9 27 44 60 75 89 102 114 125 136 137 138 139 140 141 142 143 144 145 0
-10 -28 0
-10 -45 0
-10 -61 0
-10 -76 0
-10 -90 0
-10 -103 0
-10 -115 0
-10 -126 0
-10 -136 0
-10 -146 0
-10 -147 0
-10 -148 0
-10 -149 0
-10 -150 0
-10 -151 0
-10 -152 0
-10 -153 0
-10 -154 0
-28 -45 0
-28 -61 0
-28 -76 0
-28 -90 0
-28 -103 0
-28 -115 0
-28 -126 0
-28 -136 0
-28 -146 0
-28 -147 0
-28 -148 0
-28 -149 0
-28 -150 0
-28 -151 0
-28 -152 0
-28 -153 0
-28 -154 0
-45 -61 0
-45 -76 0
-45 -90 0
-45 -103 0
-45 -115 0
-45 -126 0
-45 -136 0
-45 -146 0
-45 -147 0
-45 -148 0
-45 -149 0
-45 -150 0
-45 -151 0
-45 -152 0
-45 -153 0
-45 -154 0
-61 -76 0
-61 -90 0
-61 -103 0
-61 -115 0
-61 -126 0
-61 -136 0
-61 -146 0
-61 -147 0
-61 -148 0
-61 -149 0
-61 -150 0
-61 -151 0
-61 -152 0
-61 -153 0
-61 -154 0
-76 -90 0
-76 -103 0
-76 -115 0
-76 -126 0
-76 -136 0
-76 -146 0
-76 -147 0
-76 -148 0
-76 -149 0
-76 -150 0
-76 -151 0
-76 -152 0
-76 -153 0
-76 -154 0
-90 -103 0
-90 -115 0
-90 -126 0
-90 -136 0
-90 -146 0
-90 -147 0
-90 -148 0
-90 -149 0
-90 -150 0
-90 -151 0
-90 -152 0
-90 -153 0
-90 -154 0
-103 -115 0
-103 -126 0
-103 -136 0
-103 -146 0
-103 -147 0
-103 -148 0
-103 -149 0
-103 -150 0
-103 -151 0
-103 -152 0
-103 -153 0
-103 -154 0
-115 -126 0
-115 -136 0
-115 -146 0
-115 -147 0
-115 -148 0
-115 -149 0
-115 -150 0
-115 -151 0
-115 -152 0
-115 -153 0
-115 -154 0
-126 -136 0
-126 -146 0
-126 -147 0
-126 -148 0
-126 -149 0
-126 -150 0
-126 -151 0
-126 -152 0
-126 -153 0
-126 -154 0
-136 -146 0
-136 -147 0
-136 -148 0
-136 -149 0
-136 -150 0
-136 -151 0
-136 -152 0
-136 -153 0
-136 -154 0
-146 -147 0
-146 -148 0
-146 -149 0
-146 -150 0
-146 -151 0
-146 -152 0
-146 -153 0
-146 -154 0
-147 -148 0
-147 -149 0
-147 -150 0
-147 -151 0
-147 -152 0
-147 -153 0
-147 -154 0
-148 -149 0
-148 -150 0
-148 -151 0
-148 -152 0
-148 -153 0
-148 -154 0
-149 -150 0
-149 -151 0
-149 -152 0
-149 -153 0
-149 -154 0
-150 -151 0
-150 -152 0
-150 -153 0
-150 -154 0
-151 -152 0
-151 -153 0
-151 -154 0
-152 -153 0
-152 -154 0
-153 -154 0
10 28 45 61 76 90 103 115 126 136 146 147 148 149 150 151 152 153 154 0
-11 -29 0
-11 -46 0
-11 -62 0
-11 -77 0
-11 -91 0
-11 -104 0
-11 -116 0
-11 -127 0
-11 -137 0
-11 -146 0
-11 -155 0
-11 -156 0
-11 -157 0
-11 -158 0
-11 -159 0
-11 -160 0
-11 -161 0
-11 -162 0
-29 -46 0
-29 -62 0
-29 -77 0
-29 -91 0
-29 -104 0
-29 -116 0
-29 -127 0
-29 -137 0
-29 -146 0
-29 -155 0
-29 -156 0
-29 -157 0
-29 -158 0
-29 -159 0
-29 -160 0
-29 -161 0
-29 -162 0
-46 -62 0
-46 -77 0
-46 -91 0
-46 -104 0
-46 -116 0
-46 -127 0
-46 -137 0
-46 -146 0
-46 -155 0
-46 -156 0
-46 -157 0
-46 -158 0
-46 -159 0
-46 -160 0
-46 -161 0
-46 -162 0
-62 -77 0
-62 -91 0
-62 -104 0
-62 -116 0
-62 -127 0
-62 -137 0
-62 -146 0
-62 -155 0
-62 -156 0
-62 -157 0
-62 -158 0
-62 -159 0
-62 -160 0
-62 -161 0
-62 -162 0
-77 -91 0
-77 -104 0
-77 -116 0
-77 -127 0
-77 -137 0
-77 -146 0
-77 -155 0
-77 -156 0
-77 -157 0
-77 -158 0
-77 -159 0
-77 -160 0
-77 -161 0
-77 -162 0
-91 -104 0
-91 -116 0
-91 -127 0
-91 -137 0
-91 -146 0
-91 -155 0
-91 -156 0
-91 -157 0
-91 -158 0
-91 -159 0
-91 -160 0
-91 -161 0
-91 -162 0
-104 -116 0
-104 -127 0
-104 -137 0
-104 -146 0
-104 -155 0
-104 -156 0
-104 -157 0
-104 -158 0
-104 -159 0
-104 -160 0
-104 -161 0
-104 -162 0
-116 -127 0
-116 -137 0
-116 -146 0
-116 -155 0
-116 -156 0
-116 -157 0
-116 -158 0
-116 -159 0
-116 -160 0
-116 -161 0
-116 -162 0
-127 -137 0
-127 -146 0
-127 -155 0
-127 -156 0
-127 -157 0
-127 -158 0
-127 -159 0
-127 -160 0
-127 -161 0
-127 -162 0
-137 -146 0
-137 -155 0
-137 -156 0
-137 -157 0
-137 -158 0
-137 -159 0
-137 -160 0
-137 -161 0
-137 -162 0
-146 -155 0
-146 -156 0
-146 -157 0
-146 -158 0
-146 -159 0
-146 -160 0
-146 -161 0
-146 -162 0
-155 -156 0
-155 -157 0
-155 -158 0
-155 -159 0
-155 -160 0
-155 -161 0
-155 -162 0
-156 -157 0
-156 -158 0
-156 -159 0
-156 -160 0
-156 -161 0
-156 -162 0
-157 -158 0
-157 -159 0
-157 -160 0
-157 -161 0
-157 -162 0
-158 -159 0
-158 -160 0
-158 -161 0
-158 -162 0
-159 -160 0
-159 -161 0
-159 -162 0
-160 -161 0
-160 -162 0
-161 -162 0
11 29 46 62 77 91 104 116 127 137 146 155 156 157 158 159 160 161 162 0
-12 -30 0
-12 -47 0
-12 -63 0
-12 -78 0
-12 -92 0
-12 -105 0
-12 -117 0
-12 -128 0
-12 -138 0
-12 -147 0
-12 -155 0
-12 -163 0
-12 -164 0
-12 -165 0
-12 -166 0
-12 -167 0
-12 -168 0
-12 -169 0
-30 -47 0
-30 -63 0
-30 -78 0
-30 -92 0
-30 -105 0
-30 -117 0
-30 -128 0
-30 -138 0
-30 -147 0
-30 -155 0
-30 -163 0
-30 -164 0
-30 -165 0
-30 -166 0
-30 -167 0
-30 -168 0
-30 -169 0
-47 -63 0
-47 -78 0
-47 -92 0
-47 -105 0
-47 -117 0
-47 -128 0
-47 -138 0
-47 -147 0
-47 -155 0
-47 -163 0
-47 -164 0
-47 -165 0
-47 -166 0
-47 -167 0
-47 -168 0
-47 -169 0
-63 -78 0
-63 -92 0
-63 -105 0
-63 -117 0
-63 -128 0
-63 -138 0
-63 -147 0
-63 -155 0
-63 -163 0
-63 -164 0
-63 -165 0
-63 -166 0
-63 -167 0
-63 -168 0
-63 -169 0
-78 -92 0
-78 -105 0
-78 -117 0
-78 -128 0
-78 -138 0
-78 -147 0
-78 -155 0
-78 -163 0
-78 -164 0
-78 -165 0
-78 -166 0
-78 -167 0
-78 -168 0
-78 -169 0
-92 -105 0
-92 -117 0
-92 -128 0
-92 -138 0
-92 -147 0
-92 -155 0
-92 -163 0
-92 -164 0
-92 -165 0
-92 -166 0
-92 -167 0
-92 -168 0
-92 -169 0
-105 -117 0
-105 -128 0
-105 -138 0
-105 -147 0
-105 -155 0
-105 -163 0
-105 -164 0
-105 -165 0
-105 -166 0
-105 -167 0
-105 -168 0
-105 -169 0
-117 -128 0
-117 -138 0
-117 -147 0
-117 -155 0
-117 -163 0
-117 -164 0
-117 -165 0
-117 -166 0
-117 -167 0
-117 -168 0
-117 -169 0
-128 -138 0
-128 -147 0
-128 -155 0
-128 -163 0
-128 -164 0
-128 -165 0
-128 -166 0
-128 -167 0
-128 -168 0
-128 -169 0
-138 -147 0
-138 -155 0
-138 -163 0
-138 -164 0
-138 -165 0
-138 -166 0
-138 -167 0
-138 -168 0
-138 -169 0
-147 -155 0
-147 -163 0
-147 -164 0
-147 -165 0
-147 -166 0
-147 -167 0
-147 -168 0
-147 -169 0
-155 -163 0
-155 -164 0
-155 -165 0
-155 -166 0
-155 -167 0
-155 -168 0
-155 -169 0
-163 -164 0
-163 -165 0
-163 -166 0
-163 -167 0
-163 -168 0
-163 -169 0
-164 -165 0
-164 -166 0
-164 -167 0
-164 -168 0
-164 -169 0
-165 -166 0
-165 -167 0
-165 -168 0
-165 -169 0
-166 -167 0
-166 -168 0
-166 -169 0
-167 -168 0
-167 -169 0
-168 -169 0
12 30 47 63 78 92 105 117 128 138 147 155 163 164 165 166 167 168 169 0
-13 -31 0
-13 -48 0
-13 -64 0
-13 -79 0
-13 -93 0
-13 -106 0
-13 -118 0
-13 -129 0
-13 -139 0
-13 -148 0
-13 -156 0
-13 -163 0
-13 -170 0
-13 -171 0
-13 -172 0
-13 -173 0
-13 -174 0
-13 -175 0
-31 -48 0
-31 -64 0
-31 -79 0
-31 -93 0
-31 -106 0
-31 -118 0
-31 -129 0
-31 -139 0
-31 -148 0
-31 -156 0
-31 -163 0
-31 -170 0
-31 -171 0
-31 -172 0
-31 -173 0
-31 -174 0
-31 -175 0
-48 -64 0
-48 -79 0
-48 -93 0
-48 -106 0
-48 -118 0
-48 -129 0
-48 -139 0
-48 -148 0
-48 -156 0
-48 -163 0
-48 -170 0
-48 -171 0
-48 -172 0
-48 -173 0
-48 -174 0
-48 -175 0
-64 -79 0
-64 -93 0
-64 -106 0
-64 -118 0
-64 -129 0
-64 -139 0
-64 -148 0
-64 -156 0
-64 -163 0
-64 -170 0
-64 -171 0
-64 -172 0
-64 -173 0
-64 -174 0
-64 -175 0
-79 -93 0
-79 -106 0
-79 -118 0
-79 -129 0
-79 -139 0
-79 -148 0
-79 -156 0
-79 -163 0
-79 -170 0
-79 -171 0
-79 -172 0
-79 -173 0
-79 -174 0
-79 -175 0
-93 -106 0
-93 -118 0
-93 -129 0
-93 -139 0
-93 -148 0
-93 -156 0
-93 -163 0
-93 -170 0
-93 -171 0
-93 -172 0
-93 -173 0
-93 -174 0
-93 -175 0
-106 -118 0
-106 -129 0
-106 -139 0
-106 -148 0
-106 -156 0
-106 -163 0
-106 -170 0
-106 -171 0
-106 -172 0
-106 -173 0
-106 -174 0
-106 -175 0
-118 -129 0
-118 -139 0
-118 -148 0
-118 -156 0
-118 -163 0
-118 -170 0
-118 -171 0
-118 -172 0
-118 -173 0
-118 -174 0
-118 -175 0
-129 -139 0
-129 -148 0
-129 -156 0
-129 -163 0
-129 -170 0
-129 -171 0
-129 -172 0
-129 -173 0
-129 -174 0
-129 -175 0
-139 -148 0
-139 -156 0
-139 -163 0
-139 -170 0
-139 -171 0
-139 -172 0
-139 -173 0
-139 -174 0
-139 -175 0
-148 -156 0
-148 -163 0
-148 -170 0
-148 -171 0
-148 -172 0
-148 -173 0
-148 -174 0
-148 -175 0
-156 -163 0
-156 -170 0
-156 -171 0
-156 -172 0
-156 -173 0
-156 -174 0
-156 -175 0
-163 -170 0
-163 -171 0
-163 -172 0
-163 -173 0
-163 -174 0
-163 -175 0
-170 -171 0
-170 -172 0
-170 -173 0
-170 -174 0
-170 -175 0
-171 -172 0
-171 -173 0
-171 -174 0
-171 -175 0
-172 -173 0
-172 -174 0
-172 -175 0
-173 -174 0
-173 -175 0
-174 -175 0
13 31 48 64 79 93 106 118 129 139 148 156 163 170 171 172 173 174 175 0
-14 -32 0
-14 -49 0
-14 -65 0
-14 -80 0
-14 -94 0
-14 -107 0
-14 -119 0
-14 -130 0
-14 -140 0
-14 -149 0
-14 -157 0
-14 -164 0
-14 -170 0
-14 -176 0
-14 -177 0
-14 -178 0
-14 -179 0
-14 -180 0
-32 -49 0
-32 -65 0
-32 -80 0
-32 -94 0
-32 -107 0
-32 -119 0
-32 -130 0
-32 -140 0
-32 -149 0
-32 -157 0
-32 -164 0
-32 -170 0
-32 -176 0
-32 -177 0
-32 -178 0
-32 -179 0
-32 -180 0
-49 -65 0
-49 -80 0
-49 -94 0
-49 -107 0
-49 -119 0
-49 -130 0
-49 -140 0
-49 -149 0
-49 -157 0
-49 -164 0
-49 -170 0
-49 -176 0
-49 -177 0
-49 -178 0
-49 -179 0
-49 -180 0
-65 -80 0
-65 -94 0
-65 -107 0
-65 -119 0
-65 -130 0
-65 -140 0
-65 -149 0
-65 -157 0
-65 -164 0
-65 -170 0
-65 -176 0
-65 -177 0
-65 -178 0
-65 -179 0
-65 -180 0
-80 -94 0
-80 -107 0
-80 -119 0
-80 -130 0
-80 -140 0
-80 -149 0
-80 -157 0
-80 -164 0
-80 -170 0
-80 -176 0
-80 -177 0
-80 -178 0
-80 -179 0
-80 -180 0
-94 -107 0
-94 -119 0
-94 -130 0
-94 -140 0
-94 -149 0
-94 -157 0
-94 -164 0
-94 -170 0
-94 -176 0
-94 -177 0
-94 -178 0
-94 -179 0
-94 -180 0
-107 -119 0
-107 -130 0
-107 -140 0
-107 -149 0
-107 -157 0
-107 -164 0
-107 -170 0
-107 -176 0
-107 -177 0
-107 -178 0
-107 -179 0
-107 -180 0
-119 -130 0
-119 -140 0
-119 -149 0
-119 -157 0
-119 -164 0
-119 -170 0
-119 -176 0
-119 -177 0
-119 -178 0
-119 -179 0
-119 -180 0
-130 -140 0
-130 -149 0
-130 -157 0
-130 -164 0
-130 -170 0
-130 -176 0
-130 -177 0
-130 -178 0
-130 -179 0
-130 -180 0
-140 -149 0
-140 -157 0
-140 -164 0
-140 -170 0
-140 -176 0
-140 -177 0
-140 -178 0
-140 -179 0
-140 -180 0
-149 -157 0
-149 -164 0
-149 -170 0
-149 -176 0
-149 -177 0
-149 -178 0
-149 -179 0
-149 -180 0
-157 -164 0
-157 -170 0
-157 -176 0
-157 -177 0
-157 -178 0
-157 -179 0
-157 -180 0
-164 -170 0
-164 -176 0
-164 -177 0
-164 -178 0
-164 -179 0
-164 -180 0
-170 -176 0
-170 -177 0
-170 -178 0
-170 -179 0
-170 -180 0
-176 -177 0
-176 -178 0
-176 -179 0
-176 -180 0
-177 -178 0
-177 -179 0
-177 -180 0
-178 -179 0
-178 -180 0
-179 -180 0
14 32 49 65 80 94 107 119 130 140 149 157 164 170 176 177 178 179 180 0
-15 -33 0
-15 -50 0
-15 -66 0
-15 -81 0
-15 -95 0
-15 -108 0
-15 -120 0
-15 -131 0
-15 -141 0
-15 -150 0
-15 -158 0
-15 -165 0
-15 -171 0
-15 -176 0
-15 -181 0
-15 -182 0
-15 -183 0
-15 -184 0
-33 -50 0
-33 -66 0
-33 -81 0
-33 -95 0
-33 -108 0
-33 -120 0
-33 -131 0
-33 -141 0
-33 -150 0
-33 -158 0
-33 -165 0
-33 -171 0
-33 -176 0
-33 -181 0
-33 -182 0
-33 -183 0
-33 -184 0
-50 -66 0
-50 -81 0
-50 -95 0
-50 -108 0
-50 -120 0
-50 -131 0
-50 -141 0
-50 -150 0
-50 -158 0
-50 -165 0
-50 -171 0
-50 -176 0
-50 -181 0
-50 -182 0
-50 -183 0
-50 -184 0
-66 -81 0
-66 -95 0
-66 -108 0
-66 -120 0
-66 -131 0
-66 -141 0
-66 -150 0
-66 -158 0
-66 -165 0
-66 -171 0
-66 -176 0
-66 -181 0
-66 -182 0
-66 -183 0
-66 -184 0
-81 -95 0
-81 -108 0
-81 -120 0
-81 -131 0
-81 -141 0
-81 -150 0
-81 -158 0
-81 -165 0
-81 -171 0
-81 -176 0
-81 -181 0
-81 -182 0
-81 -183 0
-81 -184 0
-95 -108 0
-95 -120 0
-95 -131 0
-95 -141 0
-95 -150 0
-95 -158 0
-95 -165 0
-95 -171 0
-95 -176 0
-95 -181 0
-95 -182 0
-95 -183 0
-95 -184 0
-108 -120 0
-108 -131 0
-108 -141 0
-108 -150 0
-108 -158 0
-108 -165 0
-108 -171 0
-108 -176 0
-108 -181 0
-108 -182 0
-108 -183 0
-108 -184 0
-120 -131 0
-120 -141 0
-120 -150 0
-120 -158 0
-120 -165 0
-120 -171 0
-120 -176 0
-120 -181 0
-120 -182 0
-120 -183 0
-120 -184 0
-131 -141 0
-131 -150 0
-131 -158 0
-131 -165 0
-131 -171 0
-131 -176 0
-131 -181 0
-131 -182 0
-131 -183 0
-131 -184 0
-141 -150 0
-141 -158 0
-141 -165 0
-141 -171 0
-141 -176 0
-141 -181 0
-141 -182 0
-141 -183 0
-141 -184 0
-150 -158 0
-150 -165 0
-150 -171 0
-150 -176 0
-150 -181 0
-150 -182 0
-150 -183 0
-150 -184 0
-158 -165 0
-158 -171 0
-158 -176 0
-158 -181 0
-158 -182 0
-158 -183 0
-158 -184 0
-165 -171 0
-165 -176 0
-165 -181 0
-165 -182 0
-165 -183 0
-165 -184 0
-171 -176 0
-171 -181 0
-171 -182 0
-171 -183 0
-171 -184 0
-176 -181 0
-176 -182 0
-176 -183 0
-176 -184 0
-181 -182 0
-181 -183 0
-181 -184 0
-182 -183 0
-182 -184 0
-183 -184 0
15 33 50 66 81 95 108 120 131 141 150 158 165 171 176 181 182 183 184 0
-16 -34 0
-16 -51 0
-16 -67 0
-16 -82 0
-16 -96 0
-16 -109 0
-16 -121 0
-16 -132 0
-16 -142 0
-16 -151 0
-16 -159 0
-16 -166 0
-16 -172 0
-16 -177 0
-16 -181 0
-16 -185 0
-16 -186 0
-16 -187 0
-34 -51 0
-34 -67 0
-34 -82 0
-34 -96 0
-34 -109 0
-34 -121 0
-34 -132 0
-34 -142 0
-34 -151 0
-34 -159 0
-34 -166 0
-34 -172 0
-34 -177 0
-34 -181 0
-34 -185 0
-34 -186 0
-34 -187 0
-51 -67 0
-51 -82 0
-51 -96 0
-51 -109 0
-51 -121 0
-51 -132 0
-51 -142 0
-51 -151 0
-51 -159 0
-51 -166 0
-51 -172 0
-51 -177 0
-51 -181 0
-51 -185 0
-51 -186 0
-51 -187 0
-67 -82 0
-67 -96 0
-67 -109 0
-67 -121 0
-67 -132 0
-67 -142 0
-67 -151 0
-67 -159 0
-67 -166 0
-67 -172 0
-67 -177 0
-67 -181 0
-67 -185 0
-67 -186 0
-67 -187 0
-82 -96 0
-82 -109 0
-82 -121 0
-82 -132 0
-82 -142 0
-82 -151 0
-82 -159 0
-82 -166 0
-82 -172 0
-82 -177 0
-82 -181 0
-82 -185 0
-82 -186 0
-82 -187 0
-96 -109 0
-96 -121 0
-96 -132 0
-96 -142 0
-96 -151 0
-96 -159 0
-96 -166 0
-96 -172 0
-96 -177 0
-96 -181 0
-96 -185 0
-96 -186 0
-96 -187 0
-109 -121 0
-109 -132 0
-109 -142 0
-109 -151 0
-109 -159 0
-109 -166 0
-109 -172 0
-109 -177 0
-109 -181 0
-109 -185 0
-109 -186 0
-109 -187 0
-121 -132 0
-121 -142 0
-121 -151 0
-121 -159 0
-121 -166 0
-121 -172 0
-121 -177 0
-121 -181 0
-121 -185 0
-121 -186 0
-121 -187 0
-132 -142 0
-132 -151 0
-132 -159 0
-132 -166 0
-132 -172 0
-132 -177 0
-132 -181 0
-132 -185 0
-132 -186 0
-132 -187 0
-142 -151 0
-142 -159 0
-142 -166 0
-142 -172 0
-142 -177 0
-142 -181 0
-142 -185 0
-142 -186 0
-142 -187 0
-151 -159 0
-151 -166 0
-151 -172 0
-151 -177 0
-151 -181 0
-151 -185 0
-151 -186 0
-151 -187 0
-159 -166 0
-159 -172 0
-159 -177 0
-159 -181 0
-159 -185 0
-159 -186 0
-159 -187 0
-166 -172 0
-166 -177 0
-166 -181 0
-166 -185 0
-166 -186 0
-166 -187 0
-172 -177 0
-172 -181 0
-172 -185 0
-172 -186 0
-172 -187 0
-177 -181 0
-177 -185 0
-177 -186 0
-177 -187 0
-181 -185 0
-181 -186 0
-181 -187 0
-185 -186 0
-185 -187 0
-186 -187 0
16 34 51 67 82 96 109 121 132 142 151 159 166 172 177 181 185 186 187 0
-17 -35 0
-17 -52 0
-17 -68 0
-17 -83 0
-17 -97 0
-17 -110 0
-17 -122 0
-17 -133 0
-17 -143 0
-17 -152 0
-17 -160 0
-17 -167 0
-17 -173 0
-17 -178 0
-17 -182 0
-17 -185 0
-17 -188 0
-17 -189 0
-35 -52 0
-35 -68 0
-35 -83 0
-35 -97 0
-35 -110 0
-35 -122 0
-35 -133 0
-35 -143 0
-35 -152 0
-35 -160 0
-35 -167 0
-35 -173 0
-35 -178 0
-35 -182 0
-35 -185 0
-35 -188 0
-35 -189 0
-52 -68 0
-52 -83 0
-52 -97 0
-52 -110 0
-52 -122 0
-52 -133 0
-52 -143 0
-52 -152 0
-52 -160 0
-52 -167 0
-52 -173 0
-52 -178 0
-52 -182 0
-52 -185 0
-52 -188 0
-52 -189 0
-68 -83 0
-68 -97 0
-68 -110 0
-68 -122 0
-68 -133 0
-68 -143 0
-68 -152 0
-68 -160 0
-68 -167 0
-68 -173 0
-68 -178 0
-68 -182 0
-68 -185 0
-68 -188 0
-68 -189 0
-83 -97 0
-83 -110 0
-83 -122 0
-83 -133 0
-83 -143 0
-83 -152 0
-83 -160 0
-83 -167 0
-83 -173 0
-83 -178 0
-83 -182 0
-83 -185 0
-83 -188 0
-83 -189 0
-97 -110 0
-97 -122 0
-97 -133 0
-97 -143 0
-97 -152 0
-97 -160 0
-97 -167 0
-97 -173 0
-97 -178 0
-97 -182 0
-97 -185 0
-97 -188 0
-97 -189 0
-110 -122 0
-110 -133 0
-110 -143 0
-110 -152 0
-110 -160 0
-110 -167 0
-110 -173 0
-110 -178 0
-110 -182 0
-110 -185 0
-110 -188 0
-110 -189 0
-122 -133 0
-122 -143 0
-122 -152 0
-122 -160 0
-122 -167 0
-122 -173 0
-122 -178 0
-122 -182 0
-122 -185 0
-122 -188 0
-122 -189 0
-133 -143 0
-133 -152 0
-133 -160 0
-133 -167 0
-133 -173 0
-133 -178 0
-133 -182 0
-133 -185 0
-133 -188 0
-133 -189 0
-143 -152 0
-143 -160 0
-143 -167 0
-143 -173 0
-143 -178 0
-143 -182 0
-143 -185 0
-143 -188 0
-143 -189 0
-152 -160 0
-152 -167 0
-152 -173 0
-152 -178 0
-152 -182 0
-152 -185 0
-152 -188 0
-152 -189 0
-160 -167 0
-160 -173 0
-160 -178 0
-160 -182 0
-160 -185 0
-160 -188 0
-160 -189 0
-167 -173 0
-167 -178 0
-167 -182 0
-167 -185 0
-167 -188 0
-167 -189 0
-173 -178 0
-173 -182 0
-173 -185 0
-173 -188 0
-173 -189 0
-178 -182 0
-178 -185 0
-178 -188 0
-178 -189 0
-182 -185 0
-182 -188 0
-182 -189 0
-185 -188 0
-185 -189 0
-188 -189 0
17 35 52 68 83 97 110 122 133 143 152 160 167 173 178 182 185 188 189 0
-18 -36 0
-18 -53 0
-18 -69 0
-18 -84 0
-18 -98 0
-18 -111 0
-18 -123 0
-18 -134 0
-18 -144 0
-18 -153 0
-18 -161 0
-18 -168 0
-18 -174 0
-18 -179 0
-18 -183 0
-18 -186 0
-18 -188 0
-18 -190 0
-36 -53 0
-36 -69 0
-36 -84 0
-36 -98 0
-36 -111 0
-36 -123 0
-36 -134 0
-36 -144 0
-36 -153 0
-36 -161 0
-36 -168 0
-36 -174 0
-36 -179 0
-36 -183 0
-36 -186 0
-36 -188 0
-36 -190 0
-53 -69 0
-53 -84 0
-53 -98 0
-53 -111 0
-53 -123 0
-53 -134 0
-53 -144 0
-53 -153 0
-53 -161 0
-53 -168 0
-53 -174 0
-53 -179 0
-53 -183 0
-53 -186 0
-53 -188 0
-53 -190 0
-69 -84 0
-69 -98 0
-69 -111 0
-69 -123 0
-69 -134 0
-69 -144 0
-69 -153 0
-69 -161 0
-69 -168 0
-69 -174 0
-69 -179 0
-69 -183 0
-69 -186 0
-69 -188 0
-69 -190 0
-84 -98 0
-84 -111 0
-84 -123 0
-84 -134 0
-84 -144 0
-84 -153 0
-84 -161 0
-84 -168 0
-84 -174 0
-84 -179 0
-84 -183 0
-84 -186 0
-84 -188 0
-84 -190 0
-98 -111 0
-98 -123 0
-98 -134 0
-98 -144 0
-98 -153 0
-98 -161 0
-98 -168 0
-98 -174 0
-98 -179 0
-98 -183 0
-98 -186 0
-98 -188 0
-98 -190 0
-111 -123 0
-111 -134 0
-111 -144 0
-111 -153 0
-111 -161 0
-111 -168 0
-111 -174 0
-111 -179 0
-111 -183 0
-111 -186 0
-111 -188 0
-111 -190 0
-123 -134 0
-123 -144 0
-123 -153 0
-123 -161 0
-123 -168 0
-123 -174 0
-123 -179 0
-123 -183 0
-123 -186 0
-123 -188 0
-123 -190 0
-134 -144 0
-134 -153 0
-134 -161 0
-134 -168 0
-134 -174 0
-134 -179 0
-134 -183 0
-134 -186 0
-134 -188 0
-134 -190 0
-144 -153 0
-144 -161 0
-144 -168 0
-144 -174 0
-144 -179 0
-144 -183 0
-144 -186 0
-144 -188 0
-144 -190 0
-153 -161 0
-153 -168 0
-153 -174 0
-153 -179 0
-153 -183 0
-153 -186 0
-153 -188 0
-153 -190 0
-161 -168 0
-161 -174 0
-161 -179 0
-161 -183 0
-161 -186 0
-161 -188 0
-161 -190 0
-168 -174 0
-168 -179 0
-168 -183 0
-168 -186 0
-168 -188 0
-168 -190 0
-174 -179 0
-174 -183 0
-174 -186 0
-174 -188 0
-174 -190 0
-179 -183 0
-179 -186 0
-179 -188 0
-179 -190 0
-183 -186 0
-183 -188 0
-183 -190 0
-186 -188 0
-186 -190 0
-188 -190 0
18 36 53 69 84 98 111 123 134 144 153 161 168 174 179 183 186 188 190 0
-19 -37 0
-19 -54 0
-19 -70 0
-19 -85 0
-19 -99 0
-19 -112 0
-19 -124 0
-19 -135 0
-19 -145 0
-19 -154 0
-19 -162 0
-19 -169 0
-19 -175 0
-19 -180 0
-19 -184 0
-19 -187 0
-19 -189 0
-19 -190 0
-37 -54 0
-37 -70 0
-37 -85 0
-37 -99 0
-37 -112 0
-37 -124 0
-37 -135 0
-37 -145 0
-37 -154 0
-37 -162 0
-37 -169 0
-37 -175 0
-37 -180 0
-37 -184 0
-37 -187 0
-37 -189 0
-37 -190 0
-54 -70 0
-54 -85 0
-54 -99 0
-54 -112 0
-54 -124 0
-54 -135 0
-54 -145 0
-54 -154 0
-54 -162 0
-54 -169 0
-54 -175 0
-54 -180 0
-54 -184 0
-54 -187 0
-54 -189 0
-54 -190 0
-70 -85 0
-70 -99 0
-70 -112 0
-70 -124 0
-70 -135 0
-70 -145 0
-70 -154 0
-70 -162 0
-70 -169 0
-70 -175 0
-70 -180 0
-70 -184 0
-70 -187 0
-70 -189 0
-70 -190 0
-85 -99 0
-85 -112 0
-85 -124 0
-85 -135 0
-85 -145 0
-85 -154 0
-85 -162 0
-85 -169 0
-85 -175 0
-85 -180 0
-85 -184 0
-85 -187 0
-85 -189 0
-85 -190 0
-99 -112 0
-99 -124 0
-99 -135 0
-99 -145 0
-99 -154 0
-99 -162 0
-99 -169 0
-99 -175 0
-99 -180 0
-99 -184 0
-99 -187 0
-99 -189 0
-99 -190 0
-112 -124 0
-112 -135 0
-112 -145 0
-112 -154 0
-112 -162 0
-112 -169 0
-112 -175 0
-112 -180 0
-112 -184 0
-112 -187 0
-112 -189 0
-112 -190 0
-124 -135 0
-124 -145 0
-124 -154 0
-124 -162 0
-124 -169 0
-124 -175 0
-124 -180 0
-124 -184 0
-124 -187 0
-124 -189 0
-124 -190 0
-135 -145 0
-135 -154 0
-135 -162 0
-135 -169 0
-135 -175 0
-135 -180 0
-135 -184 0
-135 -187 0
-135 -189 0
-135 -190 0
-145 -154 0
-145 -162 0
-145 -169 0
-145 -175 0
-145 -180 0
-145 -184 0
-145 -187 0
-145 -189 0
-145 -190 0
-154 -162 0
-154 -169 0
-154 -175 0
-154 -180 0
-154 -184 0
-154 -187 0
-154 -189 0
-154 -190 0
-162 -169 0
-162 -175 0
-162 -180 0
-162 -184 0
-162 -187 0
-162 -189 0
-162 -190 0
-169 -175 0
-169 -180 0
-169 -184 0
-169 -187 0
-169 -189 0
-169 -190 0
-175 -180 0
-175 -184 0
-175 -187 0
-175 -189 0
-175 -190 0
-180 -184 0
-180 -187 0
-180 -189 0
-180 -190 0
-184 -187 0
-184 -189 0
-184 -190 0
-187 -189 0
-187 -190 0
-189 -190 0
19 37 54 70 85 99 112 124 135 145 154 162 169 175 180 184 187 189 190 0
